c Created with the Wolfram Language : www.wolfram.com
c 
p edge 50 142
e 1 2
e 4 5
e 3 6
e 1 8
e 7 9
e 2 10
e 6 10
e 7 11
e 8 12
e 6 13
e 6 14
e 12 14
e 9 16
e 10 16
e 6 17
e 11 17
e 2 18
e 7 18
e 2 19
e 4 19
e 6 19
e 8 19
e 12 19
e 18 19
e 5 20
e 10 20
e 15 21
e 11 22
e 11 23
e 16 23
e 13 24
e 11 26
e 19 26
e 22 26
e 11 27
e 5 28
e 19 28
e 2 29
e 5 29
e 12 29
e 22 29
e 19 30
e 27 30
e 10 31
e 12 31
e 19 31
e 28 31
e 29 31
e 9 32
e 10 32
e 27 32
e 6 33
e 7 33
e 20 33
e 23 33
e 1 34
e 5 34
e 23 34
e 31 34
e 9 35
e 11 35
e 15 35
e 21 35
e 32 35
e 2 36
e 4 36
e 10 36
e 15 36
e 24 36
e 25 36
e 12 37
e 20 37
e 25 37
e 14 38
e 18 38
e 30 38
e 4 39
e 11 39
e 28 39
e 33 39
e 36 39
e 7 40
e 11 40
e 15 40
e 18 40
e 27 40
e 5 41
e 7 41
e 10 41
e 11 41
e 13 41
e 19 41
e 26 41
e 40 41
e 11 42
e 14 42
e 34 42
e 1 43
e 2 43
e 4 43
e 10 44
e 20 44
e 27 44
e 31 44
e 38 44
e 12 45
e 22 45
e 38 45
e 40 45
e 42 45
e 1 46
e 19 46
e 32 46
e 33 46
e 38 46
e 43 46
e 1 47
e 2 47
e 7 47
e 10 47
e 18 47
e 19 47
e 20 47
e 46 47
e 3 48
e 17 48
e 26 48
e 37 48
e 38 48
e 5 49
e 14 49
e 22 49
e 31 49
e 34 49
e 39 49
e 40 49
e 42 49
e 1 50
e 7 50
e 31 50
e 33 50
e 45 50
